Maximize
  0.00100730085825994 Z_75_0_0 + 3.3933774668889273e-04 Z_75_0_1
   + 0.00109301082744607 Z_75_0_2 + 0.6633416746422724 Z_75_0_3
   + 0.2342186759253327 Z_75_0_4 + 1.5362712092004162e-04 Z_44_0_0
   + 0.00183753145991605 Z_44_0_1 + 0.7761138100905312 Z_44_0_2
   + 0.00115043213127202 Z_44_0_3 + 0.1207445991973609 Z_44_0_4
   + 3.4306521474122712e-04 Z_238_0_0 + 9.0994980621137821e-04 Z_238_0_1
   + 0.075909175696 Z_238_0_2 + 0.4215091636138131 Z_238_0_3
   + 0.4013286456692343 Z_238_0_4
Subject To
 constraint1_750: Z_75_0_0 + Z_75_0_1 + Z_75_0_2 + Z_75_0_3 + Z_75_0_4
   <= 1
 constraint1_440: Z_44_0_0 + Z_44_0_1 + Z_44_0_2 + Z_44_0_3 + Z_44_0_4
   <= 1
 constraint1_2380: Z_238_0_0 + Z_238_0_1 + Z_238_0_2 + Z_238_0_3
   + Z_238_0_4 <= 1
 constraint2_750: Z_75_0_0 <= 1
 constraint2_751: Z_75_0_1 <= 1
 constraint2_752: Z_75_0_2 <= 1
 constraint2_753: Z_75_0_3 <= 1
 constraint2_440: Z_44_0_0 <= 1
 constraint2_441: Z_44_0_1 <= 1
 constraint2_442: Z_44_0_2 <= 1
 constraint2_443: Z_44_0_3 <= 1
 constraint2_2380: Z_238_0_0 <= 1
 constraint2_2381: Z_238_0_1 <= 1
 constraint2_2382: Z_238_0_2 <= 1
 constraint2_2383: Z_238_0_3 <= 1
Bounds
Binaries
 Z_75_0_0 Z_75_0_1 Z_75_0_2 Z_75_0_3 Z_75_0_4 Z_44_0_0 Z_44_0_1 Z_44_0_2
 Z_44_0_3 Z_44_0_4 Z_238_0_0 Z_238_0_1 Z_238_0_2 Z_238_0_3 Z_238_0_4
End
